137640
47,61,103,4,15,43,79,91,60,96,78,94,3,101,105,38,104,11,41,67,95,54,71,36,70,18,49,37,39,73,85,48,2,33,84,53,7,32,63,75,35,100,51,82,72,45,25,62,22,86,46,77,21,17,90,64,16,20,56,40,6,69,88,13,31,65,98,106,52,5,30,29,55,97,8,92,23,12,93,89,76,28,27,10,59,66,44,87,1,58,24,102,74,83,80,57,9,42,81,19,99,68,50,26,34,14,47